Route #1: 14
Route #2: 4
Route #3: 19
Route #4: 21
Route #5: 18 9 12 33
Route #6: 8 11 17 26 36 6 28 13 30
Route #7: 25
Route #8: 38 15 29 20 23 1 31
Route #9: 27 34 37 35 24 2
Route #10: 22 3 7 16 5 32 10
cost: 959.4059631269056
